Route #1: 132 83 128 125 127 114 11 122 100
Route #2: 25 59 96 121 7 68 30 8 84 107 44 98 23 77 5 97 6 113
Route #3: 13 63 81 15 27 22 4 70 67 55 126 20 75 28 65 42 53 66 108 90 48
Route #4: 78 38 50 35 26 74 87 109
Route #5: 19 130 3 72 86 33 124 82 17
Route #6: 57 104 99 111 36 43 120 79 71
Route #7: 56 123 110 54 32 62 10 103
Route #8: 24 37 88 102 94 93 45 21 46 106 76
Route #9: 80 133 12 85 29 92 31 115
Route #10: 118 51 16 47 9 2 14 91
Route #11: 119 61 1 69 49 117 64 112
Route #12: 60 58 34 39 73 18 41 105
Route #13: 95 129 116 89 101 131 52 40
